12
0,1,6,4,13,7,9,8,77,2,3,5
1,0,4,15,10,27,3,3,10,2,7,9
1,24,0,55,7,2,32,5,2,20,30,5
4,15,55,0,11,5,2,1,15,12,31,50
13,10,77,11,0,22,10,5,3,25,3,5
7,29,2,5,22,0,8,17,8,2,3,5
9,3,33,2,10,8,0,13,8,2,37,5
8,3,5,1,5,17,13,0,7,21,3,5
67,12,2,15,3,7,8,7,0,2,3,5
78,10,24,17,3,1,8,7,2,0,3,5
7,1,2,15,3,4,8,7,5,2,0,5
54,11,2,15,3,7,8,7,9,2,3,0
4
5